VRPTWMS/instances/mip/toDelete/fuel_old/5/N5-C_DV100-C_SV25_F5_13_No_1.log

Gurobi 6.0.2 (win64) logging started 06/12/15 16:44:55

Read LP format model from file C:\MT\repository\VRPTWMS\instances\mip\fuel\N5-C_DV100-C_SV25_F5_13_No_1.lp
Reading time = 0.00 seconds
(null): 186 rows, 103 columns, 698 nonzeros
Optimize a model with 186 rows, 103 columns and 698 nonzeros
Model has 150 quadratic constraints
WARNING: Only barrier available for SOCP models
Coefficient statistics:
  Matrix range    [1e+00, 1e+02]
  Objective range [3e+00, 1e+03]
  Bounds range    [1e+00, 1e+02]
  RHS range       [1e+00, 1e+02]
Presolve removed 18 rows and 8 columns
Presolve time: 0.02s
Presolved: 468 rows, 256 columns, 2101 nonzeros
Variable types: 139 continuous, 117 integer (89 binary)
Found heuristic solution: objective 5196.5000000
Optimize a model with 468 rows, 256 columns and 2101 nonzeros
Coefficient statistics:
  Matrix range    [8e-01, 1e+02]
  Objective range [3e+00, 1e+03]
  Bounds range    [1e+00, 1e+02]
  RHS range       [1e+00, 1e+02]
Presolve removed 64 rows and 44 columns
Presolved: 404 rows, 214 columns, 1863 nonzeros


Root relaxation: objective 6.836507e+01, 37 iterations, 0.00 seconds

    Nodes    |    Current Node    |     Objective Bounds      |     Work
 Expl Unexpl |  Obj  Depth IntInf | Incumbent    BestBd   Gap | It/Node Time

     0     0   68.36507    0   15 5196.50000   68.36507  98.7%     -    0s
     0     0  194.57323    0   27 5196.50000  194.57323  96.3%     -    0s
H    0     0                    3134.4400000  194.57323  93.8%     -    0s
     0     0 1028.30507    0   24 3134.44000 1028.30507  67.2%     -    0s
     0     0 1035.19679    0   27 3134.44000 1035.19679  67.0%     -    0s
H    0     0                    2100.3800000 1035.19679  50.7%     -    0s
     0     0 1035.23480    0   27 2100.38000 1035.23480  50.7%     -    0s
     0     0 1035.27702    0   20 2100.38000 1035.27702  50.7%     -    0s
     0     0 1035.31724    0   23 2100.38000 1035.31724  50.7%     -    0s
     0     0 1035.31724    0   22 2100.38000 1035.31724  50.7%     -    0s
     0     0 1035.31724    0   23 2100.38000 1035.31724  50.7%     -    0s
     0     0 1035.31724    0   19 2100.38000 1035.31724  50.7%     -    0s
     0     2 1035.31724    0   19 2100.38000 1035.31724  50.7%     -    0s

Cutting planes:
  Learned: 4
  Gomory: 4
  Cover: 45
  Implied bound: 57
  Clique: 8
  MIR: 37
  GUB cover: 3
  Zero half: 2

Explored 682 nodes (11043 simplex iterations) in 0.29 seconds
Thread count was 2 (of 4 available processors)

Optimal solution found (tolerance 1.00e-04)
Best objective 2.100380000000e+03, best bound 2.100380000000e+03, gap 0.0%
k_c1	6.0
k_c2	3.0
k_c3	11.0
k_c4	12.0
k_c5	4.0
k_dN	-0.0
o_1	0.0
o_2	0.0
o_3	0.0
o_4	0.0
o_5	0.0
p_1	0.0
p_2	0.0
p_3	0.0
p_4	0.0
p_5	0.0
phi_c1	2.0
phi_c2	2.0
phi_c3	3.0
phi_c4	3.0
phi_c5	1.0
phi_dN	0.0
pi_c1	0.0
pi_c2	0.0
pi_c3	0.0
pi_c4	0.0
pi_c5	0.0
pi_dN	-0.0
tauD_c1	40.0
tauD_c2	76.0
tauD_c3	30.0
tauD_c4	24.0
tauD_c5	60.0
tauD_d0	-0.0
tauD_dN	100.0
tauS_c1	4.0
tauS_c2	0.0
tauS_c3	0.0
tauS_c4	0.0
tauS_c5	0.0
tauS_d0	-0.0
tauS_dN	0.0
x_c1_c5	1.0
x_c2_dN	1.0
x_c3_c1	1.0
x_c4_c2	1.0
x_c5_dN	1.0
x_d0_c3	1.0
x_d0_c4	1.0
